p cnf 56 382
1 2 3 4 5 6 7 0
-1 -2 0
-1 -3 0
-1 -4 0
-1 -5 0
-1 -6 0
-1 -7 0
-2 -3 0
-2 -4 0
-2 -5 0
-2 -6 0
-2 -7 0
-3 -4 0
-3 -5 0
-3 -6 0
-3 -7 0
-4 -5 0
-4 -6 0
-4 -7 0
-5 -6 0
-5 -7 0
-6 -7 0
8 9 10 11 12 13 14 0
-8 -9 0
-8 -10 0
-8 -11 0
-8 -12 0
-8 -13 0
-8 -14 0
-9 -10 0
-9 -11 0
-9 -12 0
-9 -13 0
-9 -14 0
-10 -11 0
-10 -12 0
-10 -13 0
-10 -14 0
-11 -12 0
-11 -13 0
-11 -14 0
-12 -13 0
-12 -14 0
-13 -14 0
15 16 17 18 19 20 21 0
-15 -16 0
-15 -17 0
-15 -18 0
-15 -19 0
-15 -20 0
-15 -21 0
-16 -17 0
-16 -18 0
-16 -19 0
-16 -20 0
-16 -21 0
-17 -18 0
-17 -19 0
-17 -20 0
-17 -21 0
-18 -19 0
-18 -20 0
-18 -21 0
-19 -20 0
-19 -21 0
-20 -21 0
22 23 24 25 26 27 28 0
-22 -23 0
-22 -24 0
-22 -25 0
-22 -26 0
-22 -27 0
-22 -28 0
-23 -24 0
-23 -25 0
-23 -26 0
-23 -27 0
-23 -28 0
-24 -25 0
-24 -26 0
-24 -27 0
-24 -28 0
-25 -26 0
-25 -27 0
-25 -28 0
-26 -27 0
-26 -28 0
-27 -28 0
29 30 31 32 33 34 35 0
-29 -30 0
-29 -31 0
-29 -32 0
-29 -33 0
-29 -34 0
-29 -35 0
-30 -31 0
-30 -32 0
-30 -33 0
-30 -34 0
-30 -35 0
-31 -32 0
-31 -33 0
-31 -34 0
-31 -35 0
-32 -33 0
-32 -34 0
-32 -35 0
-33 -34 0
-33 -35 0
-34 -35 0
36 37 38 39 40 41 42 0
-36 -37 0
-36 -38 0
-36 -39 0
-36 -40 0
-36 -41 0
-36 -42 0
-37 -38 0
-37 -39 0
-37 -40 0
-37 -41 0
-37 -42 0
-38 -39 0
-38 -40 0
-38 -41 0
-38 -42 0
-39 -40 0
-39 -41 0
-39 -42 0
-40 -41 0
-40 -42 0
-41 -42 0
43 44 45 46 47 48 49 0
-43 -44 0
-43 -45 0
-43 -46 0
-43 -47 0
-43 -48 0
-43 -49 0
-44 -45 0
-44 -46 0
-44 -47 0
-44 -48 0
-44 -49 0
-45 -46 0
-45 -47 0
-45 -48 0
-45 -49 0
-46 -47 0
-46 -48 0
-46 -49 0
-47 -48 0
-47 -49 0
-48 -49 0
50 51 52 53 54 55 56 0
-50 -51 0
-50 -52 0
-50 -53 0
-50 -54 0
-50 -55 0
-50 -56 0
-51 -52 0
-51 -53 0
-51 -54 0
-51 -55 0
-51 -56 0
-52 -53 0
-52 -54 0
-52 -55 0
-52 -56 0
-53 -54 0
-53 -55 0
-53 -56 0
-54 -55 0
-54 -56 0
-55 -56 0
1 0
50 0
-1 -11 0
-1 -12 0
-1 -13 0
-1 -14 0
-2 -12 0
-2 -13 0
-2 -14 0
-3 -13 0
-3 -14 0
-4 -8 0
-4 -14 0
-5 -8 0
-5 -9 0
-6 -8 0
-6 -9 0
-6 -10 0
-7 -8 0
-7 -9 0
-7 -10 0
-7 -11 0
-8 -18 0
-8 -19 0
-8 -20 0
-8 -21 0
-9 -19 0
-9 -20 0
-9 -21 0
-10 -20 0
-10 -21 0
-11 -15 0
-11 -21 0
-12 -15 0
-12 -16 0
-13 -15 0
-13 -16 0
-13 -17 0
-14 -15 0
-14 -16 0
-14 -17 0
-14 -18 0
-15 -25 0
-15 -26 0
-15 -27 0
-15 -28 0
-16 -26 0
-16 -27 0
-16 -28 0
-17 -27 0
-17 -28 0
-18 -22 0
-18 -28 0
-19 -22 0
-19 -23 0
-20 -22 0
-20 -23 0
-20 -24 0
-21 -22 0
-21 -23 0
-21 -24 0
-21 -25 0
-22 -32 0
-22 -33 0
-22 -34 0
-22 -35 0
-23 -33 0
-23 -34 0
-23 -35 0
-24 -34 0
-24 -35 0
-25 -29 0
-25 -35 0
-26 -29 0
-26 -30 0
-27 -29 0
-27 -30 0
-27 -31 0
-28 -29 0
-28 -30 0
-28 -31 0
-28 -32 0
-29 -39 0
-29 -40 0
-29 -41 0
-29 -42 0
-30 -40 0
-30 -41 0
-30 -42 0
-31 -41 0
-31 -42 0
-32 -36 0
-32 -42 0
-33 -36 0
-33 -37 0
-34 -36 0
-34 -37 0
-34 -38 0
-35 -36 0
-35 -37 0
-35 -38 0
-35 -39 0
-36 -46 0
-36 -47 0
-36 -48 0
-36 -49 0
-37 -47 0
-37 -48 0
-37 -49 0
-38 -48 0
-38 -49 0
-39 -43 0
-39 -49 0
-40 -43 0
-40 -44 0
-41 -43 0
-41 -44 0
-41 -45 0
-42 -43 0
-42 -44 0
-42 -45 0
-42 -46 0
-43 -53 0
-43 -54 0
-43 -55 0
-43 -56 0
-44 -54 0
-44 -55 0
-44 -56 0
-45 -55 0
-45 -56 0
-46 -50 0
-46 -56 0
-47 -50 0
-47 -51 0
-48 -50 0
-48 -51 0
-48 -52 0
-49 -50 0
-49 -51 0
-49 -52 0
-49 -53 0
-1 -8 -15 0
-2 -9 -16 0
-3 -10 -17 0
-4 -11 -18 0
-5 -12 -19 0
-6 -13 -20 0
-7 -14 -21 0
-8 -15 -22 0
-9 -16 -23 0
-10 -17 -24 0
-11 -18 -25 0
-12 -19 -26 0
-13 -20 -27 0
-14 -21 -28 0
-15 -22 -29 0
-16 -23 -30 0
-17 -24 -31 0
-18 -25 -32 0
-19 -26 -33 0
-20 -27 -34 0
-21 -28 -35 0
-22 -29 -36 0
-23 -30 -37 0
-24 -31 -38 0
-25 -32 -39 0
-26 -33 -40 0
-27 -34 -41 0
-28 -35 -42 0
-29 -36 -43 0
-30 -37 -44 0
-31 -38 -45 0
-32 -39 -46 0
-33 -40 -47 0
-34 -41 -48 0
-35 -42 -49 0
-36 -43 -50 0
-37 -44 -51 0
-38 -45 -52 0
-39 -46 -53 0
-40 -47 -54 0
-41 -48 -55 0
-42 -49 -56 0
5 6 7 12 13 14 19 20 21 26 27 28 33 34 35 40 41 42 47 48 49 54 55 56 0
-5 8 9 10 11 0
-6 8 9 10 11 12 0
-7 8 9 10 11 12 13 0
-12 15 16 17 18 0
-13 15 16 17 18 19 0
-14 15 16 17 18 19 20 0
-19 22 23 24 25 0
-20 22 23 24 25 26 0
-21 22 23 24 25 26 27 0
-26 29 30 31 32 0
-27 29 30 31 32 33 0
-28 29 30 31 32 33 34 0
-33 36 37 38 39 0
-34 36 37 38 39 40 0
-35 36 37 38 39 40 41 0
-40 43 44 45 46 0
-41 43 44 45 46 47 0
-42 43 44 45 46 47 48 0
-47 50 51 52 53 0
-48 50 51 52 53 54 0
-49 50 51 52 53 54 55 0
